<number of tasks>
20

<cycle time>
1000

<order strength>
0,184


<task times>
1 466
2 640
3 468
4 544
5 489
6 483
7 596
8 607
9 391
10 457
11 289
12 555
13 430
14 464
15 625
16 47
17 421
18 641
19 410
20 425

<precedence relations>
1,5
2,7
3,6
3,8
4,9
4,10
5,12
6,11
7,13
11,15
12,14
13,16
13,17
13,18
14,19
17,20

<end>
